 vasp.5.4.4.18Apr17-6-g9f103f2a35 (build Jun 15 2022 16:00:52) complex

 executed on             LinuxIFC date 2025.09.11  18:41:08

 INCAR:
 POTCAR:    PAW_PBE Li_sv 10Sep2004
 POTCAR:    PAW_PBE Co 02Aug2007
 POTCAR:    PAW_PBE O 08Apr2002

 POTCAR:    PAW_PBE Li_sv 10Sep2004
   VRHFIN =Li: 1s2s2p

   TITEL  = PAW_PBE Li_sv 10Sep2004
   POMASS =    7.010; ZVAL   =    3.000    mass and valenz
   ENMAX  =  499.034; ENMIN  =  374.276 eV

 POTCAR:    PAW_PBE Co 02Aug2007
   VRHFIN =Co: d8 s1

   TITEL  = PAW_PBE Co 02Aug2007
   POMASS =   58.933; ZVAL   =    9.000    mass and valenz
   ENMAX  =  267.968; ENMIN  =  200.976 eV

 POTCAR:    PAW_PBE O 08Apr2002
   VRHFIN =O: s2p4

   TITEL  = PAW_PBE O 08Apr2002
   POMASS =   16.000; ZVAL   =    6.000    mass and valenz
   ENMAX  =  400.000; ENMIN  =  300.000 eV

 Optimization of the real space projectors (new method)

 maximal supplied QI-value         = 22.11
 optimisation between [QCUT,QGAM] = [ 11.50, 23.22] = [ 37.02,150.92] Ry
 Optimized for a Real-space Cutoff    1.08 Angstroem

   l    n(q)    QCUT    max X(q) W(low)/X(q) W(high)/X(q)  e(spline)
   0      7    11.497    10.506    0.36E-04    0.62E-04    0.14E-07
   0      7    11.497     8.367    0.65E-04    0.14E-03    0.28E-07
   1      7    11.497     8.983    0.21E-03    0.43E-03    0.90E-07
 Optimization of the real space projectors (new method)

[...]

   l    n(q)    QCUT    max X(q) W(low)/X(q) W(high)/X(q)  e(spline)
   2      9    11.539    65.824    0.19E-03    0.47E-04    0.16E-06
   2      9    11.539    61.429    0.20E-03    0.48E-04    0.16E-06
   0     10    11.539    56.174    0.76E-04    0.45E-04    0.23E-06
   0     10    11.539    31.263    0.69E-04    0.41E-04    0.21E-06
   1     10    11.539    19.828    0.78E-04    0.14E-03    0.70E-07
   1     10    11.539    15.139    0.65E-04    0.12E-03    0.64E-07
 Optimization of the real space projectors (new method)

 maximal supplied QI-value         = 24.76
 optimisation between [QCUT,QGAM] = [ 11.64, 23.27] = [ 37.91,151.63] Ry
 Optimized for a Real-space Cutoff    1.14 Angstroem

   l    n(q)    QCUT    max X(q) W(low)/X(q) W(high)/X(q)  e(spline)
   0      8    11.635    20.381    0.10E-03    0.33E-03    0.24E-06
   0      8    11.635    15.268    0.11E-03    0.35E-03    0.26E-06
   1      7    11.635     5.964    0.24E-03    0.31E-03    0.30E-06
   1      7    11.635     5.382    0.22E-03    0.25E-03    0.26E-06
  PAW_PBE Li_sv 10Sep2004               :
  PAW_PBE Co 02Aug2007                  :
  PAW_PBE O 08Apr2002                   :

 POSCAR: POSCAR file written by OVITO Basic 3.11.
  positions in cartesian coordinates
 exchange correlation table for  LEXCH =        8
   RHO(1)=    0.500       N(1)  =     2000
   RHO(2)=  100.500       N(2)  =     4000

 VTST: version 3.2, (02/03/18)

 CHAIN: initializing optimizer

 OPT: Using VASP Conjugate-Gradient optimizer
 CHAIN: Read ICHAIN            0

 POSCAR: POSCAR file written by OVITO Basic 3.11.
  positions in cartesian coordinates

 ion  position               nearest neighbor table
   1  0.000  0.000  0.000-  10 1.91  11 1.91  11 1.91  10 1.91  10 1.91  11 1.91   6 2.85   5 2.85
                             6 2.85   5 2.85   5 2.85   6 2.85
   2  0.667  0.333  0.333-  12 1.91   7 1.91  12 1.91   7 1.91   7 1.91  12 1.91   4 2.85   4 2.85
                             6 2.85   6 2.85   4 2.85   6 2.85
   3  0.333  0.667  0.667-   9 1.91   8 1.91   8 1.91   9 1.91   8 1.91   9 1.91   4 2.85   4 2.85
                             5 2.85   5 2.85   4 2.85   5 2.85
   4  0.000  0.000  0.500-   9 2.10  12 2.10  12 2.10   9 2.10   9 2.10  12 2.10   3 2.85   2 2.85
                             3 2.85   2 2.85   2 2.85   3 2.85
   5  0.667  0.333  0.833-  11 2.10  11 2.10   8 2.10   8 2.10  11 2.10   8 2.10   1 2.85   1 2.85
                             3 2.85   3 2.85   1 2.85   3 2.85
   6  0.333  0.667  0.167-  10 2.10  10 2.10   7 2.10   7 2.10  10 2.10   7 2.10   1 2.85   1 2.85
                             2 2.85   2 2.85   1 2.85   2 2.85
   7  0.000  0.000  0.262-   2 1.91   2 1.91   2 1.91   6 2.10   6 2.10   6 2.10
   8  0.000  0.000  0.738-   3 1.91   3 1.91   3 1.91   5 2.10   5 2.10   5 2.10
   9  0.667  0.333  0.595-   3 1.91   3 1.91   3 1.91   4 2.10   4 2.10   4 2.10
  10  0.667  0.333  0.072-   1 1.91   1 1.91   1 1.91   6 2.10   6 2.10   6 2.10
  11  0.333  0.667  0.928-   1 1.91   1 1.91   1 1.91   5 2.10   5 2.10   5 2.10
  12  0.333  0.667  0.405-   2 1.91   2 1.91   2 1.91   4 2.10   4 2.10   4 2.10

  LATTYP: Found a hexagonal cell.
 ALAT       =     2.8150000000
 C/A-ratio  =     4.9918294848

  Lattice vectors:

 A1 = (   2.8150000000,   0.0000000000,   0.0000000000)
 A2 = (  -1.4075000000,   2.4378615117,   0.0000000000)
 A3 = (   0.0000000000,   0.0000000000,  14.0520000000)

Analysis of symmetry for initial positions (statically):
 Subroutine PRICEL returns following result:

  LATTYP: Found a trigonal (rhomboedric) cell.
 ALAT       =     4.9579496098
 COS(alpha) =     0.8388157563

[...]

   3 primitive cells build up your supercell.

 Routine SETGRP: Setting up the symmetry group for a
 hexagonal supercell.

 Subroutine GETGRP returns: Found 12 space group operations
 (whereof 12 operations were pure point group operations)
 out of a pool of 24 trial point group operations.

The static configuration has the point symmetry D_3d.

Analysis of symmetry for dynamics (positions and initial velocities):
 Subroutine PRICEL returns following result:

[...]

The dynamic configuration has the point symmetry D_3d.

Analysis of structural, dynamic, and magnetic symmetry:
 Subroutine PRICEL returns following result:

  LATTYP: Found a trigonal (rhomboedric) cell.
 ALAT       =     4.9579496098
 COS(alpha) =     0.8388157563

  Lattice vectors:

 A1 = (   1.4075000000,   0.8126205039,   4.6840000000)
 A2 = (  -1.4075000000,   0.8126205039,   4.6840000000)
 A3 = (  -0.0000000000,  -1.6252410078,   4.6840000000)

   3 primitive cells build up your supercell.

 Routine SETGRP: Setting up the symmetry group for a
 hexagonal supercell.

 Subroutine GETGRP returns: Found 12 space group operations
 (whereof 12 operations were pure point group operations)
 out of a pool of 24 trial point group operations.

The magnetic configuration has the point symmetry D_3d.

 Subroutine INISYM returns: Found 12 space group operations
 (whereof 12 operations are pure point group operations),
 and found     3 'primitive' translations

 KPOINTS: pymatgen with grid density = 2001 / numb

Automatic generation of k-mesh.
Space group operators:
 irot       det(A)        alpha          n_x          n_y          n_z        tau_x        tau_y        tau_z
    1     1.000000     0.000000     1.000000     0.000000     0.000000     0.000000     0.000000     0.000000
    2    -1.000000     0.000000     1.000000     0.000000     0.000000     0.000000     0.000000     0.000000
    3     1.000000   120.000000     0.000000     0.000000    -1.000000     0.000000     0.000000     0.000000
    4    -1.000000   120.000000     0.000000     0.000000    -1.000000     0.000000     0.000000     0.000000
    5     1.000000   120.000000     0.000000     0.000000     1.000000     0.000000     0.000000     0.000000
    6    -1.000000   120.000000     0.000000     0.000000     1.000000     0.000000     0.000000     0.000000
    7     1.000000   180.000000     1.000000     0.000000     0.000000     0.000000     0.000000     0.000000
    8    -1.000000   180.000000     1.000000     0.000000     0.000000     0.000000     0.000000     0.000000
    9     1.000000   180.000000     0.500000    -0.866025     0.000000     0.000000     0.000000     0.000000
   10    -1.000000   180.000000     0.500000    -0.866025     0.000000     0.000000     0.000000     0.000000
   11     1.000000   180.000000    -0.500000    -0.866025     0.000000     0.000000     0.000000     0.000000
   12    -1.000000   180.000000    -0.500000    -0.866025     0.000000     0.000000     0.000000     0.000000

 Subroutine IBZKPT returns following result:

 Found     12 irreducible k-points:

 Following reciprocal coordinates:
            Coordinates               Weight
  0.000000  0.000000  0.000000      1.000000
  0.111111 -0.000000  0.000000      6.000000
  0.222222 -0.000000  0.000000      6.000000
  0.333333  0.000000  0.000000      6.000000
  0.444444 -0.000000  0.000000      6.000000
  0.111111  0.111111  0.000000      6.000000
  0.222222  0.111111  0.000000     12.000000
  0.333333  0.111111  0.000000     12.000000
  0.444444  0.111111  0.000000      6.000000
  0.222222  0.222222  0.000000      6.000000
  0.333333  0.222222  0.000000     12.000000
  0.333333  0.333333  0.000000      2.000000

 Following cartesian coordinates:
            Coordinates               Weight
  0.000000  0.000000  0.000000      1.000000
  0.039471  0.022789  0.000000      6.000000
  0.078942  0.045577  0.000000      6.000000
  0.118413  0.068366  0.000000      6.000000
  0.157884  0.091155  0.000000      6.000000
  0.039471  0.068366  0.000000      6.000000
  0.078942  0.091155  0.000000     12.000000
  0.118413  0.113943  0.000000     12.000000
  0.157884  0.136732  0.000000      6.000000
  0.078942  0.136732  0.000000      6.000000
  0.118413  0.159521  0.000000     12.000000
  0.118413  0.205098  0.000000      2.000000

 TETIRR: Found     43 inequivalent tetrahedra from      486

 SYSTEM =  unknown system
 POSCAR =  POSCAR file written by OVITO Basic 3.11.

 Startparameter for this run:
   NWRITE =      2    write-flag & timer
   PREC   = accura    normal or accurate (medium, high low for compatibility)
   ISTART =      0    job   : 0-new  1-cont  2-samecut
   ICHARG =      2    charge: 1-file 2-atom 10-const
   ISPIN  =      2    spin polarized calculation?
   LNONCOLLINEAR =      F non collinear calculations
   LSORBIT =      F    spin-orbit coupling
   INIWAV =      1    electr: 0-lowe 1-rand  2-diag
   LASPH  =      T    aspherical Exc in radial PAW
   METAGGA=      F    non-selfconsistent MetaGGA calc.

 Electronic Relaxation 1
   ENCUT  =  520.0 eV  38.22 Ry    6.18 a.u.   5.23  5.23 26.13*2*pi/ulx,y,z
   ENINI  =  520.0     initial cutoff
   ENAUG  =  628.9 eV  augmentation charge cutoff
   NELM   =    100;   NELMIN=  2; NELMDL= -5     # of ELM steps
   EDIFF  = 0.1E-03   stopping-criterion for ELM
   LREAL  =      T    real-space projection
   NLSPLINE    = F    spline interpolate recip. space projectors
   LCOMPAT=      F    compatible to vasp.4.4
   GGA_COMPAT  = T    GGA compatible to vasp.4.4-vasp.4.6
   LMAXPAW     = -100 max onsite density
   LMAXMIX     =    4 max onsite mixed and CHGCAR
   VOSKOWN=      0    Vosko Wilk Nusair interpolation
   ROPT   =   -0.00025  -0.00025  -0.00025
 Ionic relaxation
   EDIFFG = 0.1E-02   stopping-criterion for IOM
   NSW    =     99    number of steps for IOM
   NBLOCK =      1;   KBLOCK =     99    inner block; outer block
   IBRION =      2    ionic relax: 0-MD 1-quasi-New 2-CG
   NFREE  =      1    steps in history (QN), initial steepest desc. (CG)
   ISIF   =      3    stress and relaxation
   IWAVPR =     11    prediction:  0-non 1-charg 2-wave 3-comb
   ISYM   =      2    0-nonsym 1-usesym 2-fastsym
[...]
      1.40750      0.81262      8.36000        -0.000000      0.000000     -3.387436
      1.40750      0.81262      1.00800         0.000000     -0.000000      3.387436
      0.00000      1.62524     13.04400        -0.000000      0.000000     -3.387436
      0.00000      1.62524      5.69200         0.000000      0.000000      3.387436
    total drift:                               -0.000000      0.000000     -0.000000

  FREE ENERGIE OF THE ION-ELECTRON SYSTEM (eV)
  free  energy   TOTEN  =       -64.17813372 eV

  energy  without entropy=      -64.17813372  energy(sigma->0) =      -64.17813372

 stress matrix after NEB project (eV)
      6.82815      0.00000      0.00000
      0.00000      6.82815     -0.00000
      0.00000      0.00000     -4.13030
  FORCES: max atom, RMS     3.387436    2.395279
  FORCE total and by dimension    8.297491    3.387436
  Stress total and by dimension   10.502696    6.828149

[...]

 d Force = 0.2253085E+01[ 0.124E+01, 0.327E+01]  d Energy = 0.2466138E+01-0.213E+00
 d Force =-0.1230138E+03[-0.157E+03,-0.892E+02]  d Ewald  =-0.1753299E+03 0.523E+02

 stress matrix after NEB project (eV)
      0.55085     -0.00000     -0.00000
     -0.00000      0.55085     -0.00000
      0.00000      0.00000      1.20763
  FORCES: max atom, RMS     1.285886    0.909259
  FORCE total and by dimension    3.149766    1.285886
  Stress total and by dimension    1.437092    1.207631
 Steepest descent step on ions:
 trial-energy change:   -2.466138  1 .order   -2.517952   -3.764884   -1.271019
  (g-gl).g = 0.376E+01      g.g   = 0.376E+01  gl.gl    = 0.000E+00
 g(Force)  = 0.332E+01   g(Stress)= 0.443E+00 ortho     = 0.000E+00
 gamma     =   0.00000
 trial     =   1.00000
 opt step  =   1.64070  (harmonic =   1.50966) maximal distance =0.26812119
 next E    =   -67.037814   (d E  =  -2.85968)

[...]

 d Force = 0.3681885E+00[-0.627E-01, 0.799E+00]  d Energy = 0.3489216E+00 0.193E-01
 d Force =-0.1118603E+03[-0.123E+03,-0.101E+03]  d Ewald  =-0.1344616E+03 0.226E+02

[...]

 d Force = 0.1263947E-02[-0.542E-02, 0.795E-02]  d Energy = 0.7983733E-02-0.672E-02
 d Force = 0.1540002E+02[ 0.152E+02, 0.156E+02]  d Ewald  = 0.1757540E+02-0.218E+01

[...]

 stress matrix after NEB project (eV)
     -1.11664      0.00000      0.00000
      0.00000     -1.11664      0.00000
      0.00000      0.00000      2.28819
  FORCES: max atom, RMS     0.096378    0.068149
  FORCE total and by dimension    0.236077    0.096378
  Stress total and by dimension    2.780215    2.288192
 Conjugate gradient step on ions:
 trial-energy change:   -0.087368  1 .order   -0.082721   -0.110666   -0.054777
  (g-gl).g = 0.127E+00      g.g   = 0.100E+00  gl.gl    = 0.376E+01
 g(Force)  = 0.137E-02   g(Stress)= 0.990E-01 ortho     =-0.266E-01
 gamma     =   0.03373
 trial     =   1.11209
 opt step  =   1.72634  (harmonic =   2.20205) maximal distance =0.01524520
 next E    =   -67.104456   (d E  =  -0.10328)

[...]

 d Force = 0.3300437E-02[ 0.343E-02, 0.317E-02]  d Energy = 0.2297554E-01-0.197E-01
 d Force =-0.6726890E+01[-0.680E+01,-0.665E+01]  d Ewald  =-0.3042253E+02 0.237E+02

[...]

 d Force = 0.7641521E-02[ 0.835E-02, 0.693E-02]  d Energy =-0.5475550E-02 0.131E-01
 d Force =-0.1406433E+02[-0.144E+02,-0.138E+02]  d Ewald  =-0.6084082E+02 0.468E+02

[...]

 d Force =-0.4333146E-02[-0.412E-02,-0.454E-02]  d Energy = 0.1139786E-01-0.157E-01
 d Force = 0.7726478E+01[ 0.763E+01, 0.782E+01]  d Ewald  = 0.3415524E+02-0.264E+02

[...]

 d Force =-0.1792868E-04[-0.726E-02, 0.722E-02]  d Energy = 0.1208010E-01-0.121E-01
 d Force =-0.1373741E+02[-0.141E+02,-0.134E+02]  d Ewald  =-0.4955566E+01-0.878E+01

 stress matrix after NEB project (eV)
      0.45322     -0.00000     -0.00000
     -0.00000      0.45322      0.00000
      0.00000     -0.00000      0.15965
  FORCES: max atom, RMS     0.114334    0.080847
  FORCE total and by dimension    0.280061    0.114334
  Stress total and by dimension    0.660534    0.453221
 Conjugate gradient step on ions:
 trial-energy change:   -0.012080  1 .order   -0.011447   -0.037558    0.014664
  (g-gl).g = 0.267E-01      g.g   = 0.276E-01  gl.gl    = 0.100E+00
 g(Force)  = 0.375E-02   g(Stress)= 0.238E-01 ortho     = 0.158E-02
 gamma     =   0.26587
 trial     =   1.34211
 opt step  =   0.98434  (harmonic =   0.96525) maximal distance =0.00771371
 next E    =   -67.131466   (d E  =  -0.01402)

[...]

 d Force = 0.1433955E-02[ 0.947E-03, 0.192E-02]  d Energy = 0.2278116E-02-0.844E-03
 d Force = 0.3706448E+01[ 0.368E+01, 0.373E+01]  d Ewald  = 0.1416680E+01 0.229E+01

[...]

 eigenvalue-minimisations  :  2766
 total energy-change (2. order) : 0.1199613E-03  (-0.8331295E-05)
 number of electron      71.9999964 magnetization       5.9999989
 augmentation part       22.0307690 magnetization       4.9729141

[...]

 eigenvalues of (default mixing * dielectric matrix)
  average eigenvalue GAMMA=   1.1196
  2.2283  0.6915  0.4390

[...]

 stress matrix after NEB project (eV)
      0.02404      0.00000      0.00000
     -0.00000      0.02404      0.00000
      0.00000      0.00000     -0.09083
  FORCES: max atom, RMS     0.018126    0.012817
  FORCE total and by dimension    0.044399    0.018126
  Stress total and by dimension    0.096983    0.090827
 Conjugate gradient step on ions:
 trial-energy change:   -0.000669  1 .order   -0.000579   -0.001101   -0.000058
  (g-gl).g = 0.314E-02      g.g   = 0.108E-02  gl.gl    = 0.276E-01
 g(Force)  = 0.921E-03   g(Stress)= 0.156E-03 ortho     =-0.185E-02
 gamma     =   0.11397
 trial     =   1.27056
 opt step  =   1.34108  (harmonic =   1.34108) maximal distance =0.00245176
 next E    =   -67.132382   (d E  =  -0.00058)

[...]

 Broyden mixing:
  rms(total) = 0.16051E-02    rms(broyden)= 0.16037E-02
  rms(prec ) = 0.17115E-02
  weight for this iteration     100.00

[...]

--------------------------------------- Iteration     12(   2)  ---------------------------------------

atom =   1  type =  1  l = 0

[...]

  o =  0.7876  v =  0.0000  1.0000      0.0000  0.0000
  o =  0.7965  v =  1.0000  0.0000      0.0000  0.0000
atom =  12  type =  3  l = 0

 onsite density matrix

[...]

  0.7876

 occupancies and eigenvectors

  o =  0.7876  v =  0.0000  1.0000      0.0000  0.0000
  o =  0.7965  v =  1.0000  0.0000      0.0000  0.0000
 BZINTS: Fermi energy:  5.071411; 72.000000 electrons
         Band energy:-301.721974;  BLOECHL correction: -0.036465

 eigenvalue-minimisations  :  1922
 total energy-change (2. order) :-0.1191123E-05  (-0.8033815E-06)
 number of electron      71.9999964 magnetization       5.9999989
 augmentation part       22.0307574 magnetization       4.9729100

 Free energy of the ion-electron system (eV)
  alpha Z        PSCENC =       206.65942832
  Ewald energy   TEWEN  =     -4295.90560923
  -Hartree energ DENC   =     -1388.23586874
  -exchange      EXHF   =         0.00000000
  -V(xc)+E(xc)   XCENC  =       258.34812039
  PAW double counting   =      5856.87237728    -6045.70797352
  entropy T*S    EENTRO =         0.00000000
  eigenvalues    EBANDS =      -301.72197447
  atomic energy  EATOM  =      5642.55902661
  Solvation  Ediel_sol  =         0.00000000
  free energy    TOTEN  =       -67.13247336 eV

  energy without entropy =      -67.13247336  energy(sigma->0) =      -67.13247336

 average (electrostatic) potential at core
  the test charge radii are     0.7079  1.0452  0.7215
  (the norm of the test charge is              1.0000)
       1 -58.1741       2 -58.1741       3 -58.1741       4 -83.7620       5 -83.7620
       6 -83.7620       7 -69.8759       8 -69.8759       9 -69.8759      10 -69.8759
      11 -69.8759      12 -69.8759

 E-fermi :   5.0714     XC(G=0): -11.3934     alpha+bet :-13.9655

[...]

 spin component 2

[...]

 k-point    12 :       0.3333    0.3333    0.0000
  band No.  band energies     occupation
      1     -39.0755      1.00000
      2     -39.0755      1.00000
      3     -39.0755      1.00000
      4     -12.4543      1.00000
      5     -12.4543      1.00000
      6     -12.4543      1.00000
      7     -12.4542      1.00000
      8     -12.4542      1.00000
      9     -12.4542      1.00000
     10      -0.4708      1.00000
     11      -0.4708      1.00000
     12      -0.4708      1.00000
     13      -0.4453      1.00000
     14      -0.4453      1.00000
     15      -0.4453      1.00000
     16      -0.0108      1.00000
     17      -0.0108      1.00000
     18      -0.0108      1.00000
     19       1.1592      1.00000
     20       1.1592      1.00000
     21       1.1592      1.00000
     22       1.9641      1.00000
     23       1.9641      1.00000
     24       1.9641      1.00000
     25       2.1621      1.00000
     26       2.1621      1.00000
     27       2.1621      1.00000
     28       4.0904      1.00000
     29       4.0904      1.00000
     30       4.0904      1.00000
     31       4.1234      1.00000
     32       4.1234      1.00000
     33       4.1234      1.00000
     34       6.7596      0.00000
     35       6.7596      0.00000
     36       6.7596      0.00000
     37       7.8877      0.00000
     38       7.8877      0.00000
     39       7.8877      0.00000
     40       7.8970      0.00000
     41       7.8970      0.00000
     42       7.8970      0.00000
     43      15.1726      0.00000
     44      15.1726      0.00000
     45      15.1726      0.00000
     46      15.3432      0.00000
     47      15.3432      0.00000
     48      15.3432      0.00000
     49      17.5900      0.00000
     50      17.5900      0.00000
     51      17.5900      0.00000
     52      17.6011      0.00000
     53      17.6011      0.00000
     54      17.6011      0.00000
     55      18.1926      0.00000
     56      18.1926      0.00000
     57      18.1926      0.00000
     58      19.6209      0.00000
     59      19.6209      0.00000
     60      19.6209      0.00000
[...]
     66      22.2830      0.00000
     67      26.2810      0.00000
     68      26.2810      0.00000
     69      26.2810      0.00000
     70      28.2598      0.00000
     71      28.2598      0.00000
     72      28.2598      0.00000
     73      29.3892      0.00000
     74      29.3892      0.00000
     75      29.3892      0.00000
     76      31.7117      0.00000
     77      31.7117      0.00000
     78      31.7117      0.00000
     79      34.0015      0.00000
     80      34.0015      0.00000

[...]

 soft charge-density along one line, spin component           2
         0         1         2         3         4         5         6         7         8         9
 total charge-density along one line

------------------------ aborting loop because EDIFF is reached ----------------------------------------

[...]

  FORCE on cell =-STRESS in cart. coord.  units (eV):
  Direction    XX          YY          ZZ          XY          YZ          ZX
  Alpha Z   206.65943   206.65943   206.65943
  Ewald   -1108.98228 -1108.98228 -2077.94169    -0.00000     0.00000    -0.00000
  Hartree   701.79298   701.79298   -15.37369    -0.00000     0.00000    -0.00000
  E(xc)    -359.87367  -359.87370  -359.06975    -0.00003     0.00000    -0.00000
  Local    -934.93351  -934.93350   763.66548     0.00000    -0.00000     0.00000
  n-local  -198.65013  -200.20702  -200.58871     4.18424     0.75297     5.81070
  augment   569.72649   569.72648   550.60711    -0.00001    -0.00000     0.00001
  Kinetic  1126.19385  1123.78502  1131.89444    -5.20763     2.20167    -4.59106
  Fock        0.00000     0.00000     0.00000     0.00000     0.00000     0.00000
  Total      -0.04971    -0.04971    -0.14740     0.00000    -0.00000     0.00000
  in kB      -0.75407    -0.75407    -2.23586     0.00000    -0.00000     0.00000

 VOLUME and BASIS-vectors are now :
  energy-cutoff  :      520.00
  volume of cell :      105.62
      direct lattice vectors                 reciprocal lattice vectors
     2.913112863 -0.000000000  0.000000000     0.343275406  0.198190148 -0.000000000
    -1.456556431  2.522829743 -0.000000000     0.000000000  0.396380296 -0.000000000
     0.000000000  0.000000000 14.371874602    -0.000000000 -0.000000000  0.069580345

  length of vectors
     2.913112863  2.913112863 14.371874602     0.396380296  0.396380296  0.069580345

 FORCES acting on ions
    electron-ion (+dipol)            ewald-force                    non-local-force                 convergence-correction
   -.515E-14 0.459E-14 -.906E-13   0.578E-14 -.563E-14 0.142E-13   0.532E-23 0.395E-22 0.105E-21   -.541E-13 -.572E-13 -.158E-11
   0.374E-11 -.180E-11 -.775E-11   0.338E-11 -.196E-11 -.371E-10   0.617E-23 0.333E-22 -.120E-21   0.106E-13 0.548E-13 0.498E-12
   -.378E-11 0.248E-11 0.777E-11   -.337E-11 0.195E-11 0.372E-10   0.512E-22 0.765E-23 -.635E-22   0.764E-13 0.104E-12 0.989E-12
   -.967E-14 0.525E-13 0.225E-11   -.206E-13 -.195E-13 -.739E-12   0.183E-20 -.283E-21 0.104E-20   0.317E-12 0.474E-12 0.517E-11
   -.200E-11 0.212E-11 0.148E-11   0.149E-10 -.854E-11 -.417E-10   0.109E-20 -.226E-21 0.433E-21   -.121E-13 0.833E-13 -.233E-11
   0.303E-11 -.630E-13 -.816E-11   -.148E-10 0.851E-11 0.424E-10   -.207E-20 0.119E-20 -.194E-20   -.108E-12 -.120E-12 -.349E-11
   -.211E-06 -.176E-06 -.209E+03   0.362E-11 0.293E-08 0.219E+03   -.231E-16 -.487E-17 -.989E+01   0.191E-07 -.110E-07 -.234E-02
   0.211E-06 0.176E-06 0.209E+03   -.362E-11 -.293E-08 -.219E+03   0.412E-18 0.258E-16 0.989E+01   -.191E-07 0.110E-07 0.234E-02
   -.211E-06 -.176E-06 -.209E+03   0.751E-11 0.292E-08 0.219E+03   -.155E-16 -.561E-16 -.989E+01   0.191E-07 -.110E-07 -.234E-02
   0.211E-06 0.176E-06 0.209E+03   0.111E-10 -.293E-08 -.219E+03   0.304E-16 0.286E-16 0.989E+01   -.191E-07 0.110E-07 0.234E-02
   -.211E-06 -.176E-06 -.209E+03   -.111E-10 0.293E-08 0.219E+03   -.156E-16 -.541E-16 -.989E+01   0.191E-07 -.110E-07 -.234E-02
   0.211E-06 0.176E-06 0.209E+03   -.748E-11 -.292E-08 -.219E+03   0.139E-16 0.265E-16 0.989E+01   -.191E-07 0.110E-07 0.234E-02
   0.577E-12 0.458E-11 -.187E-10   0.294E-13 0.541E-14 -.199E-12   -.949E-17 -.341E-16 -.533E-14   -.136E-12 -.371E-12 -.135E-11

 POSITION                                       TOTAL-FORCE (eV/Angst)
     -0.00000     -0.00000     -0.00000        -0.000000      0.000000      0.000000
      1.45656      0.84094      4.79062        -0.000000      0.000000      0.000000
      0.00000      1.68189      9.58125        -0.000000      0.000000      0.000000
      0.00000      0.00000      7.18594        -0.000000      0.000000      0.000000
      1.45656      0.84094     11.97656        -0.000000      0.000000      0.000000
      0.00000      1.68189      2.39531        -0.000000      0.000000      0.000000
      0.00000      0.00000      3.47128         0.000000      0.000000      0.015135
      0.00000      0.00000     10.90059        -0.000000     -0.000000     -0.015135
      1.45656      0.84094      8.26191         0.000000      0.000000      0.015135
      1.45656      0.84094      1.31934        -0.000000     -0.000000     -0.015135
      0.00000      1.68189     13.05253         0.000000      0.000000      0.015135
      0.00000      1.68189      6.10997        -0.000000     -0.000000     -0.015135
    total drift:                                0.000000      0.000000     -0.000000

  FREE ENERGIE OF THE ION-ELECTRON SYSTEM (eV)
  free  energy   TOTEN  =       -67.13247336 eV

  energy  without entropy=      -67.13247336  energy(sigma->0) =      -67.13247336

 d Force = 0.1286550E-04[ 0.117E-04, 0.140E-04]  d Energy = 0.2785869E-05 0.101E-04
 d Force = 0.1695040E+00[ 0.170E+00, 0.170E+00]  d Ewald  = 0.1036480E+00 0.659E-01

 stress matrix after NEB project (eV)
     -0.04971     -0.00000      0.00000
      0.00000     -0.04971     -0.00000
      0.00000     -0.00000     -0.14740
  FORCES: max atom, RMS     0.015135    0.010702
  FORCE total and by dimension    0.037073    0.015135
  Stress total and by dimension    0.163306    0.147398

 reached required accuracy - stopping structural energy minimisation

 total charge

[...]

 magnetization (x)

# of ion       s       p       d       tot
    1        0.002   0.003   0.000   0.005
    2        0.002   0.003   0.000   0.005
    3        0.002   0.003   0.000   0.005
    4        0.016   0.017   2.104   2.137
    5        0.016   0.017   2.104   2.137
    6        0.016   0.017   2.105   2.137
    7        0.009  -0.083   0.000  -0.074
    8        0.009  -0.083   0.000  -0.074
    9        0.009  -0.083   0.000  -0.074
   10        0.009  -0.083   0.000  -0.074
   11        0.009  -0.083   0.000  -0.074
   12        0.009  -0.083   0.000  -0.074
tot          0.107  -0.438   6.313   5.982

 BZINTS: Fermi energy:  5.071411; 72.000000 electrons
         Band energy:-301.721974;  BLOECHL correction: -0.036465